38 38
1 9
7 9
8 10
5 10
4 6
8 1
4 10
9 1
5 3
8 1
10 8
2 8
1 9
3 8
10 9
1 9
10 6
4 2
3 7
9 9
2 6
9 3
9 1
7 6
5 1
3 9
1 2
9 5
7 9
1 6
5 7
8 2
10 4
4 6
1 1
4 10
2 9
6 3
14 12 56
16 20 53
12 10 78
11 11 87
10 13 86
15 17 85
12 13 94
20 14 87
11 18 60
18 19 95
15 11 72
11 16 63
16 14 100
12 15 60
10 16 74
20 18 62
13 20 100
19 13 89
10 17 57
15 13 65
20 17 99
10 16 94
11 10 100
12 19 73
18 11 100
16 17 64
10 19 72
13 14 99
19 10 60
11 12 79
17 14 63
14 16 58
18 18 83
20 18 81
18 17 91
18 12 63
13 15 97
11 16 59
